--- Job gams_0064_002_32_04_0.67_05_0.25_0.90_12_problem.txt Start 02/24/21 19:05:36 35.2.0 r33388c4 WEX-WEI x86 64bit/MS Windows
--- Applying:
    C:\Users\MariaSosnovskaya\GAMS35\gmsprmNT.txt
--- GAMS Parameters defined
    Input C:\Users\MariaSosnovskaya\Downloads\WfmGams3\problems\gams_0064_002_32_04_0.67_05_0.25_0.90_12_problem.txt
    ScrDir C:\Users\MariaSosnovskaya\Downloads\WfmGams3\225e\
    SysDir C:\Users\MariaSosnovskaya\GAMS35\
Licensee: GAMS Evaluation License                        S210124/0001AB-GEN
          Sobolev Institute of Mathematics, Discrete Optimization LaDCE1098
          C:\Users\MariaSosnovskaya\GAMS35\gamslice.txt
          Evaluation license: Not for commercial or production use
GAMS 35.2.0   Copyright (C) 1987-2021 GAMS Development. All rights reserved
--- Starting compilation
--- gams_0064_002_32_04_0.67_05_0.25_0.90_12_problem.txt(22) 3 Mb
--- . gams_0064_002_32_04_0.67_05_0.25_0.90_12.inc(6600) 3 Mb
--- gams_0064_002_32_04_0.67_05_0.25_0.90_12_problem.txt(98) 3 Mb
--- Starting execution: elapsed 0:00:00.034
--- gams_0064_002_32_04_0.67_05_0.25_0.90_12_problem.txt(6621) 4 Mb
--- Generating MIP model mymodel
--- gams_0064_002_32_04_0.67_05_0.25_0.90_12_problem.txt(6677) 9 Mb
---   16,769 rows  12,289 columns  56,193 non-zeroes
---   12,288 discrete-columns
--- Executing CPLEX (Solvelink=2): elapsed 0:00:00.152

IBM ILOG CPLEX   35.2.0 r33388c4 Released Jun 02, 2021 WEI x86 64bit/MS Window

--- GAMS/Cplex licensed for continuous and discrete problems.
--- Space for names approximately 0.61 Mb
--- Use option 'names no' to turn use of names off
--- GMO memory 6.31 Mb (peak 6.40 Mb)
--- Dictionary memory 0.00 Mb
--- Cplex 20.1.0.1 link memory 0.43 Mb (peak 1.98 Mb)
--- Starting Cplex

Version identifier: 20.1.0.1 | 2021-04-07 | 3a818710c
CPXPARAM_Advance                                 0
CPXPARAM_Threads                                 1
CPXPARAM_MIP_Display                             4
CPXPARAM_TimeLimit                               3600
CPXPARAM_MIP_Tolerances_AbsMIPGap                0
Generic callback                                 0x50
Tried aggregator 2 times.
MIP Presolve eliminated 8321 rows and 1026 columns.
Aggregator did 192 substitutions.
Reduced MIP has 8256 rows, 11072 columns, and 37282 nonzeros.
Reduced MIP has 11072 binaries, 0 generals, 0 SOSs, and 0 indicators.
Presolve time = 0.06 sec. (41.92 ticks)
Probing fixed 944 vars, tightened 0 bounds.
Probing changed sense of 60 constraints.
Probing time = 0.08 sec. (29.45 ticks)
Tried aggregator 16 times.
MIP Presolve eliminated 480 rows and 1004 columns.
Aggregator did 480 substitutions.
Reduced MIP has 7296 rows, 9588 columns, and 32454 nonzeros.
Reduced MIP has 9588 binaries, 0 generals, 0 SOSs, and 0 indicators.
Presolve time = 0.62 sec. (311.86 ticks)
Probing time = 0.02 sec. (4.35 ticks)
Tried aggregator 1 time.
Detecting symmetries...
Reduced MIP has 7296 rows, 9588 columns, and 32454 nonzeros.
Reduced MIP has 9588 binaries, 0 generals, 0 SOSs, and 0 indicators.
Presolve time = 0.06 sec. (28.85 ticks)
Probing time = 0.00 sec. (4.35 ticks)
Clique table members: 23873.
MIP emphasis: balance optimality and feasibility.
MIP search method: dynamic search.
Parallel mode: none, using 1 thread.
Tried aggregator 1 time.
No LP presolve or aggregator reductions.
Presolve time = 0.02 sec. (4.22 ticks)
Initializing dual steep norms . . .

Iteration log . . .
Iteration:     1   Dual objective     =          8625.000000
Perturbation started.
Iteration:   101   Dual objective     =          8625.000000
Iteration:   460   Dual objective     =          8624.999861
Iteration:   816   Dual objective     =          8624.999755
Iteration:  1176   Dual objective     =          8624.999638
Iteration:  1537   Dual objective     =          8624.999518
Iteration:  1897   Dual objective     =          8624.999392
Iteration:  2249   Dual objective     =          8624.999289
Iteration:  2590   Dual objective     =          8624.999241
Iteration:  2925   Dual objective     =          8624.999206
Iteration:  3242   Dual objective     =          8624.999178
Iteration:  3560   Dual objective     =          8624.999153
Iteration:  3865   Dual objective     =          8624.999134
Iteration:  4168   Dual objective     =          8624.999116
Iteration:  4436   Dual objective     =          8624.999101
Iteration:  4713   Dual objective     =          8624.999084
Iteration:  4954   Dual objective     =          8624.999073
Iteration:  5159   Dual objective     =          8624.999062
Iteration:  5376   Dual objective     =          8624.999048
Iteration:  5541   Dual objective     =          8624.999039
Iteration:  5688   Dual objective     =          8624.999034
Iteration:  5843   Dual objective     =          8624.999027
Iteration:  5987   Dual objective     =          8624.999021
Iteration:  6121   Dual objective     =          8624.999016
Iteration:  6278   Dual objective     =          8624.999006
Iteration:  6415   Dual objective     =          8624.999001
Iteration:  6536   Dual objective     =          8624.998996
Iteration:  6676   Dual objective     =          8624.998993
Iteration:  6823   Dual objective     =          8624.998990
Iteration:  6955   Dual objective     =          8624.998987
Iteration:  7088   Dual objective     =          8624.998985
Iteration:  7202   Dual objective     =          8624.998984
Iteration:  7316   Dual objective     =          8624.998984
Iteration:  7432   Dual objective     =          8624.998983
Iteration:  7550   Dual objective     =          8624.998983
Removing perturbation.
Root relaxation solution time = 0.95 sec. (596.25 ticks)

        Nodes                                         Cuts/
   Node  Left     Objective  IInf  Best Integer    Best Bound    ItCnt     Gap

      0     0     8625.0000  1635                   8625.0000     7576         
      0     0     8625.0000   678                 ZeroHalf: 3     7661         
      0     0     8625.0000   876                   Cuts: 105     8897         
      0     0     8625.0000   453                 ZeroHalf: 2     9149         
      0     0     8625.0000   616                ZeroHalf: 63    10095         
      0     2     8625.0000   472                   8625.0000    10095         
Elapsed time = 11.54 sec. (7697.00 ticks, tree = 0.01 MB, solutions = 0)
      4     6     8625.0000   388                   8625.0000    12422         
     17    17     8625.0000   347                   8625.0000    13938         
     20    20     8625.0000   365                   8625.0000    15803         
     28    28     8623.0000   514                   8625.0000    19549         
     40    40     8625.0000   193                   8625.0000    21398         
     56    56     8625.0000   253                   8625.0000    26270         
     61    61     8625.0000   233                   8625.0000    29015         
     80    78     8625.0000   288                   8625.0000    32300         
     86    84     8625.0000   346                   8625.0000    34721         
    123   121     8621.0000   150                   8625.0000    47205         
Elapsed time = 17.29 sec. (11496.45 ticks, tree = 0.63 MB, solutions = 0)
    167   163     8621.0000   284                   8625.0000    59939         
    180   176     8621.0000   245                   8625.0000    66312         
    210   206     8621.0000   133                   8625.0000    76050         
    244   240     8621.0000   207                   8625.0000    89844         
    263   259     8621.0000   206                   8625.0000    99202         
    279   275     8621.0000   600                   8625.0000   112082         
    320   316     8621.0000   307                   8625.0000   125291         
    333   329     8621.0000   527                   8625.0000   136754         
    343   339     8621.0000   326                   8625.0000   146107         
    386   378     8621.0000   279                   8625.0000   164332         
Elapsed time = 34.07 sec. (21893.42 ticks, tree = 2.25 MB, solutions = 0)
    401   393     8620.9633   345                   8625.0000   174798         
    417   409     8620.8426   512                   8625.0000   181051         
    440   432     8620.8426   532                   8625.0000   188485         
    463   455     8620.8426   437                   8625.0000   195671         
    477   469     8620.8426   460                   8625.0000   202353         

Performing restart 1

Repeating presolve.
Tried aggregator 1 time.
Reduced MIP has 7296 rows, 9588 columns, and 32454 nonzeros.
Reduced MIP has 9588 binaries, 0 generals, 0 SOSs, and 0 indicators.
Presolve time = 0.03 sec. (18.15 ticks)
Tried aggregator 1 time.
Reduced MIP has 7296 rows, 9588 columns, and 32454 nonzeros.
Reduced MIP has 9588 binaries, 0 generals, 0 SOSs, and 0 indicators.
Presolve time = 0.06 sec. (29.43 ticks)
Represolve time = 0.23 sec. (103.86 ticks)
Tried aggregator 1 time.
No LP presolve or aggregator reductions.
Presolve time = 0.02 sec. (4.28 ticks)
Initializing dual steep norms . . .

Iteration log . . .
Iteration:     1   Dual objective     =          8625.000000
Perturbation started.
Iteration:   101   Dual objective     =          8625.000000
Iteration:   481   Dual objective     =          8624.999847
Iteration:   832   Dual objective     =          8624.999741
Iteration:  1196   Dual objective     =          8624.999627
Iteration:  1564   Dual objective     =          8624.999499
Iteration:  1925   Dual objective     =          8624.999383
Iteration:  2279   Dual objective     =          8624.999298
Iteration:  2637   Dual objective     =          8624.999244
Iteration:  2966   Dual objective     =          8624.999218
Iteration:  3283   Dual objective     =          8624.999190
Iteration:  3597   Dual objective     =          8624.999167
Iteration:  3892   Dual objective     =          8624.999150
Iteration:  4204   Dual objective     =          8624.999132
Iteration:  4491   Dual objective     =          8624.999116
Iteration:  4781   Dual objective     =          8624.999104
Iteration:  5041   Dual objective     =          8624.999090
Iteration:  5249   Dual objective     =          8624.999084
Iteration:  5487   Dual objective     =          8624.999073
Iteration:  5640   Dual objective     =          8624.999068
Iteration:  5779   Dual objective     =          8624.999063
Iteration:  5924   Dual objective     =          8624.999058
Iteration:  6062   Dual objective     =          8624.999053
Iteration:  6206   Dual objective     =          8624.999047
Iteration:  6349   Dual objective     =          8624.999043
Iteration:  6477   Dual objective     =          8624.999038
Iteration:  6604   Dual objective     =          8624.999035
Iteration:  6735   Dual objective     =          8624.999034
Iteration:  6875   Dual objective     =          8624.999031
Iteration:  6994   Dual objective     =          8624.999028
Iteration:  7115   Dual objective     =          8624.999026
Iteration:  7237   Dual objective     =          8624.999025
Iteration:  7349   Dual objective     =          8624.999024
Iteration:  7461   Dual objective     =          8624.999023
Iteration:  7572   Dual objective     =          8624.999023
Removing perturbation.
    483     0     8625.0000   948                    Cuts: 27   213018         
    483     0     8625.0000   749                   Cuts: 143   214126         
    483     0     8625.0000   556                    Cuts: 73   214785         
    483     0     8625.0000   428                    Cuts: 41   215047         
    483     0     8625.0000   614                    Cuts: 88   215475         
*   483+    0                         8607.0000     8625.0000             0.21%
Found incumbent of value 8607.000000 after 50.94 sec. (32819.48 ticks)
*   483+    0                         8619.0000     8625.0000             0.07%
Found incumbent of value 8619.000000 after 50.98 sec. (32842.14 ticks)
*   483+    0                         8621.0000     8625.0000             0.05%
Found incumbent of value 8621.000000 after 51.01 sec. (32862.23 ticks)
    483     2     8625.0000   112     8621.0000     8625.0000   215475    0.05%
    502    19     8625.0000   749     8621.0000     8625.0000   224525    0.05%
    527    42     8625.0000   749     8621.0000     8625.0000   233399    0.05%
    548    61     8625.0000   272     8621.0000     8625.0000   243536    0.05%
    573    86     8625.0000   199     8621.0000     8625.0000   251736    0.05%
Elapsed time = 58.14 sec. (37159.20 ticks, tree = 0.57 MB, solutions = 3)
*   583+   90                         8624.0000     8625.0000             0.01%
Found incumbent of value 8624.000000 after 58.59 sec. (37438.99 ticks)
    593   102     8625.0000   231     8624.0000     8625.0000   256365    0.01%
    617   124     8625.0000   419     8624.0000     8625.0000   267565    0.01%
    633   140     8625.0000   254     8624.0000     8625.0000   275345    0.01%
    645   150     8625.0000   521     8624.0000     8625.0000   281332    0.01%
    663   166     8625.0000   429     8624.0000     8625.0000   286992    0.01%
*   683+    1                         8625.0000     8625.0000             0.00%
Found incumbent of value 8625.000000 after 71.20 sec. (44741.43 ticks)

Zero-half cuts applied:  8
Gomory fractional cuts applied:  4

Root node processing (before b&c):
  Real time             =   11.50 sec. (7683.31 ticks)
Sequential b&c:
  Real time             =   59.70 sec. (37066.57 ticks)
                          ------------
Total (root+branch&cut) =   71.20 sec. (44749.88 ticks)

--- MIP status (101): integer optimal solution.
--- Cplex Time: 71.20sec (det. 44749.91 ticks)

--- Fixing integer variables and solving final LP...

Version identifier: 20.1.0.1 | 2021-04-07 | 3a818710c
CPXPARAM_Advance                                 2
CPXPARAM_Threads                                 1
CPXPARAM_MIP_Display                             4
CPXPARAM_TimeLimit                               3600
CPXPARAM_MIP_Tolerances_AbsMIPGap                0
Tried aggregator 1 time.
LP Presolve eliminated 16769 rows and 12290 columns.
All rows and columns eliminated.
Presolve time = 0.00 sec. (7.09 ticks)

--- Fixed MIP status (1): optimal.
--- Cplex Time: 0.00sec (det. 12.42 ticks)


Proven optimal solution
MIP Solution:         8625.000000    (288955 iterations, 683 nodes)
Final Solve:          8625.000000    (0 iterations)

Best possible:        8625.000000
Absolute gap:            0.000000
Relative gap:            0.000000

--- Reading solution for model mymodel
--- gams_0064_002_32_04_0.67_05_0.25_0.90_12_problem.txt(6677) 9 Mb  71 secs
--- Executing after solve: elapsed 0:01:11.527
--- gams_0064_002_32_04_0.67_05_0.25_0.90_12_problem.txt(6678) 9 Mb--- gams_0064_002_32_04_0.67_05_0.25_0.90_12_problem.txt(6698) 9 Mb
--- Putfile results C:\Users\MariaSosnovskaya\Downloads\WfmGams3\problems\gams_0064_002_32_04_0.67_05_0.25_0.90_12_results.txt
*** Status: Normal completion
--- Job gams_0064_002_32_04_0.67_05_0.25_0.90_12_problem.txt Stop 02/24/21 19:06:48 elapsed 0:01:11.547
